(set-info :source |printed by MathSAT|)
(declare-fun |.x{141}| () Int)
(declare-fun |.x{152}| () Int)
(declare-fun |.y{4}| () Int)
(declare-fun |.y{5}| () Int)
(declare-fun |.x{142}| () (Array Int Int))
(declare-fun |.x{153}| () (Array Int Int))
(declare-fun |.x{143}| () Int)
(declare-fun |.x{151}| () Int)
(declare-fun |.x{144}| () Int)
(declare-fun |.x{154}| () Int)
(declare-fun |.x{145}| () (Array Int Int))
(declare-fun |.y{6}| () (Array Int Int))
(declare-fun |.x{146}| () Int)
(declare-fun |.y{7}| () Int)
(declare-fun |.loc{4}| () Bool)
(declare-fun |.loc{7}| () Bool)
(declare-fun |.loc{5}| () Bool)
(declare-fun |.loc{8}| () Bool)
(declare-fun |.loc{6}| () Bool)
(declare-fun |.loc{9}| () Bool)
(declare-fun |.x{163}| () Int)
(declare-fun |.x{125}| () Int)
(declare-fun |.x{127}| () Int)
(declare-fun |.x{129}| () Int)
(declare-fun |.x{182}| () Int)
(define-fun .def_22 () Bool (! |.loc{4}| :next |.loc{7}|))
(define-fun .def_82 () Bool (not .def_22))
(define-fun .def_24 () Bool (! |.loc{5}| :next |.loc{8}|))
(define-fun .def_40 () Bool (not .def_24))
(define-fun .def_269 () Bool (and .def_40 .def_82))
(define-fun .def_26 () Bool (! |.loc{6}| :next |.loc{9}|))
(define-fun .def_47 () Bool (not .def_26))
(define-fun .def_270 () Bool (! (and .def_47 .def_269) :init true))
(define-fun .def_131 () Bool (not |.loc{7}|))
(define-fun .def_260 () Bool (and |.loc{9}| .def_131))
(define-fun .def_55 () Bool (not |.loc{8}|))
(define-fun .def_261 () Bool (and .def_55 .def_260))
(define-fun .def_20 () Int (! |.x{146}| :next |.y{7}|))
(define-fun .def_257 () Bool (= |.x{154}| .def_20))
(define-fun .def_18 () (Array Int Int) (! |.x{145}| :next |.y{6}|))
(define-fun .def_253 () Bool (= |.x{153}| .def_18))
(define-fun .def_14 () Int (! |.x{143}| :next |.x{151}|))
(define-fun .def_251 () Bool (= |.x{152}| .def_14))
(define-fun .def_16 () Int (! |.x{144}| :next |.x{154}|))
(define-fun .def_186 () Bool (<= .def_20 .def_16))
(define-fun .def_248 () Bool (and .def_22 .def_186))
(define-fun .def_249 () Bool (and .def_24 .def_248))
(define-fun .def_250 () Bool (and .def_47 .def_249))
(define-fun .def_252 () Bool (and .def_250 .def_251))
(define-fun .def_254 () Bool (and .def_252 .def_253))
(define-fun .def_255 () Bool (and .def_253 .def_254))
(define-fun .def_160 () Bool (= |.x{151}| 0))
(define-fun .def_256 () Bool (and .def_160 .def_255))
(define-fun .def_258 () Bool (and .def_256 .def_257))
(define-fun .def_241 () Bool (<= .def_16 .def_14))
(define-fun .def_242 () Bool (not .def_241))
(define-fun .def_12 () (Array Int Int) (! |.x{142}| :next |.x{153}|))
(define-fun .def_113 () Int (select .def_12 |.x{163}|))
(define-fun .def_237 () Bool (= .def_14 .def_113))
(define-fun .def_88 () Bool (= .def_12 |.x{153}|))
(define-fun .def_34 () Bool (= .def_16 |.x{154}|))
(define-fun .def_89 () Bool (and .def_34 .def_88))
(define-fun .def_235 () Bool (and .def_40 .def_89))
(define-fun .def_236 () Bool (and .def_82 .def_235))
(define-fun .def_238 () Bool (and .def_236 .def_237))
(define-fun .def_239 () Bool (and .def_26 .def_238))
(define-fun .def_63 () Int (* (- 1) |.x{163}|))
(define-fun .def_109 () Int (+ .def_14 .def_63))
(define-fun .def_8 () Int (! |.x{141}| :next |.x{152}|))
(define-fun .def_110 () Int (+ .def_8 .def_109))
(define-fun .def_111 () Bool (= .def_110 0))
(define-fun .def_240 () Bool (and .def_111 .def_239))
(define-fun .def_243 () Bool (and .def_240 .def_242))
(define-fun .def_125 () Bool (<= .def_8 0))
(define-fun .def_31 () Bool (<= |.x{163}| 0))
(define-fun .def_32 () Bool (not .def_31))
(define-fun .def_126 () Bool (or .def_32 .def_125))
(define-fun .def_244 () Bool (and .def_126 .def_243))
(define-fun .def_128 () Bool (not .def_125))
(define-fun .def_245 () Bool (and .def_128 .def_244))
(define-fun .def_133 () Int (* (- 1) |.x{151}|))
(define-fun .def_134 () Int (+ .def_14 .def_133))
(define-fun .def_135 () Bool (= .def_134 (- 1)))
(define-fun .def_246 () Bool (and .def_135 .def_245))
(define-fun .def_143 () Bool (= .def_8 |.x{152}|))
(define-fun .def_247 () Bool (and .def_143 .def_246))
(define-fun .def_259 () Bool (or .def_247 .def_258))
(define-fun .def_262 () Bool (and .def_259 .def_261))
(define-fun .def_226 () Bool (= |.x{151}| .def_16))
(define-fun .def_221 () Bool (= |.x{154}| 0))
(define-fun .def_222 () Bool (and .def_88 .def_221))
(define-fun .def_36 () Bool (= .def_18 |.y{6}|))
(define-fun .def_223 () Bool (and .def_36 .def_222))
(define-fun .def_122 () Bool (<= .def_20 .def_14))
(define-fun .def_224 () Bool (and .def_122 .def_223))
(define-fun .def_225 () Bool (and .def_82 .def_224))
(define-fun .def_227 () Bool (and .def_225 .def_226))
(define-fun .def_228 () Bool (and .def_24 .def_227))
(define-fun .def_97 () Bool (= .def_20 |.y{7}|))
(define-fun .def_229 () Bool (and .def_97 .def_228))
(define-fun .def_230 () Bool (and .def_47 .def_229))
(define-fun .def_231 () Bool (and |.loc{7}| .def_230))
(define-fun .def_232 () Bool (and |.loc{8}| .def_231))
(define-fun .def_61 () Bool (not |.loc{9}|))
(define-fun .def_233 () Bool (and .def_61 .def_232))
(define-fun .def_234 () Bool (and .def_143 .def_233))
(define-fun .def_263 () Bool (or .def_234 .def_262))
(define-fun .def_175 () Bool (<= .def_14 0))
(define-fun .def_219 () Bool (not .def_175))
(define-fun .def_215 () Bool (or .def_32 .def_175))
(define-fun .def_211 () Int (+ .def_16 .def_63))
(define-fun .def_212 () Int (+ .def_14 .def_211))
(define-fun .def_213 () Bool (= .def_212 0))
(define-fun .def_117 () Int (* (- 1) |.x{125}|))
(define-fun .def_204 () Int (+ .def_16 .def_117))
(define-fun .def_205 () Int (+ .def_8 .def_204))
(define-fun .def_206 () Bool (= .def_205 0))
(define-fun .def_196 () Int (select .def_12 |.x{125}|))
(define-fun .def_194 () Int (select .def_18 |.x{163}|))
(define-fun .def_195 () Int (* (- 1) .def_194))
(define-fun .def_197 () Int (+ .def_195 .def_196))
(define-fun .def_198 () Int (+ |.x{127}| .def_197))
(define-fun .def_199 () Bool (= .def_198 0))
(define-fun .def_187 () Bool (not .def_186))
(define-fun .def_181 () Int (* (- 1) |.x{129}|))
(define-fun .def_182 () Int (+ .def_16 .def_181))
(define-fun .def_183 () Int (+ .def_14 .def_182))
(define-fun .def_184 () Bool (= .def_183 0))
(define-fun .def_176 () Bool (<= |.x{129}| 0))
(define-fun .def_177 () Bool (not .def_176))
(define-fun .def_178 () Bool (or .def_175 .def_177))
(define-fun .def_172 () (Array Int Int) (store .def_18 |.x{129}| |.x{127}|))
(define-fun .def_173 () Bool (= |.y{6}| .def_172))
(define-fun .def_167 () Bool (<= |.x{125}| 0))
(define-fun .def_168 () Bool (not .def_167))
(define-fun .def_169 () Bool (or .def_125 .def_168))
(define-fun .def_163 () Int (* (- 1) |.x{154}|))
(define-fun .def_164 () Int (+ .def_16 .def_163))
(define-fun .def_165 () Bool (= .def_164 (- 1)))
(define-fun .def_166 () Bool (and .def_88 .def_165))
(define-fun .def_170 () Bool (and .def_166 .def_169))
(define-fun .def_174 () Bool (and .def_170 .def_173))
(define-fun .def_179 () Bool (and .def_174 .def_178))
(define-fun .def_185 () Bool (and .def_179 .def_184))
(define-fun .def_188 () Bool (and .def_185 .def_187))
(define-fun .def_189 () Bool (and .def_22 .def_188))
(define-fun .def_190 () Bool (and .def_24 .def_189))
(define-fun .def_191 () Bool (and .def_97 .def_190))
(define-fun .def_45 () Bool (= .def_14 |.x{151}|))
(define-fun .def_192 () Bool (and .def_45 .def_191))
(define-fun .def_193 () Bool (and .def_47 .def_192))
(define-fun .def_200 () Bool (and .def_193 .def_199))
(define-fun .def_207 () Bool (and .def_200 .def_206))
(define-fun .def_208 () Bool (and |.loc{7}| .def_207))
(define-fun .def_209 () Bool (and .def_128 .def_208))
(define-fun .def_210 () Bool (and |.loc{8}| .def_209))
(define-fun .def_214 () Bool (and .def_210 .def_213))
(define-fun .def_216 () Bool (and .def_214 .def_215))
(define-fun .def_217 () Bool (and .def_61 .def_216))
(define-fun .def_218 () Bool (and .def_143 .def_217))
(define-fun .def_220 () Bool (and .def_218 .def_219))
(define-fun .def_264 () Bool (or .def_220 .def_263))
(define-fun .def_156 () Bool (= .def_16 |.y{7}|))
(define-fun .def_154 () Bool (= .def_14 |.x{154}|))
(define-fun .def_10 () Int (! |.y{4}| :next |.y{5}|))
(define-fun .def_152 () Bool (= |.x{152}| .def_10))
(define-fun .def_147 () Bool (and .def_36 .def_88))
(define-fun .def_148 () Bool (and .def_40 .def_147))
(define-fun .def_149 () Bool (and .def_22 .def_148))
(define-fun .def_68 () Bool (<= .def_16 .def_8))
(define-fun .def_150 () Bool (and .def_68 .def_149))
(define-fun .def_151 () Bool (and .def_47 .def_150))
(define-fun .def_153 () Bool (and .def_151 .def_152))
(define-fun .def_155 () Bool (and .def_153 .def_154))
(define-fun .def_157 () Bool (and .def_155 .def_156))
(define-fun .def_158 () Bool (and |.loc{8}| .def_157))
(define-fun .def_159 () Bool (and .def_131 .def_158))
(define-fun .def_161 () Bool (and .def_159 .def_160))
(define-fun .def_162 () Bool (and .def_61 .def_161))
(define-fun .def_265 () Bool (or .def_162 .def_264))
(define-fun .def_137 () Bool (<= .def_16 0))
(define-fun .def_145 () Bool (not .def_137))
(define-fun .def_138 () Bool (<= |.x{127}| 0))
(define-fun .def_139 () Bool (not .def_138))
(define-fun .def_140 () Bool (or .def_137 .def_139))
(define-fun .def_123 () Bool (not .def_122))
(define-fun .def_118 () Int (+ .def_117 .def_113))
(define-fun .def_119 () Int (+ .def_14 .def_118))
(define-fun .def_120 () Bool (= .def_119 0))
(define-fun .def_103 () Int (* (- 1) |.x{127}|))
(define-fun .def_104 () Int (+ .def_16 .def_103))
(define-fun .def_105 () Int (+ .def_14 .def_104))
(define-fun .def_106 () Bool (= .def_105 0))
(define-fun .def_93 () (Array Int Int) (store .def_18 |.x{127}| |.x{125}|))
(define-fun .def_94 () Bool (= |.y{6}| .def_93))
(define-fun .def_90 () Bool (and .def_82 .def_89))
(define-fun .def_95 () Bool (and .def_90 .def_94))
(define-fun .def_96 () Bool (and .def_24 .def_95))
(define-fun .def_98 () Bool (and .def_96 .def_97))
(define-fun .def_107 () Bool (and .def_98 .def_106))
(define-fun .def_108 () Bool (and .def_47 .def_107))
(define-fun .def_112 () Bool (and .def_108 .def_111))
(define-fun .def_121 () Bool (and .def_112 .def_120))
(define-fun .def_124 () Bool (and .def_121 .def_123))
(define-fun .def_127 () Bool (and .def_124 .def_126))
(define-fun .def_129 () Bool (and .def_127 .def_128))
(define-fun .def_130 () Bool (and |.loc{8}| .def_129))
(define-fun .def_132 () Bool (and .def_130 .def_131))
(define-fun .def_136 () Bool (and .def_132 .def_135))
(define-fun .def_141 () Bool (and .def_136 .def_140))
(define-fun .def_142 () Bool (and .def_61 .def_141))
(define-fun .def_144 () Bool (and .def_142 .def_143))
(define-fun .def_146 () Bool (and .def_144 .def_145))
(define-fun .def_266 () Bool (or .def_146 .def_265))
(define-fun .def_79 () Bool (<= |.x{151}| 0))
(define-fun .def_80 () Bool (not .def_79))
(define-fun .def_75 () Bool (<= |.x{154}| 0))
(define-fun .def_76 () Bool (not .def_75))
(define-fun .def_73 () Bool (= |.x{152}| 0))
(define-fun .def_71 () Bool (<= |.y{5}| 0))
(define-fun .def_72 () Bool (not .def_71))
(define-fun .def_74 () Bool (and .def_72 .def_73))
(define-fun .def_77 () Bool (and .def_74 .def_76))
(define-fun .def_78 () Bool (and .def_40 .def_77))
(define-fun .def_81 () Bool (and .def_78 .def_80))
(define-fun .def_83 () Bool (and .def_81 .def_82))
(define-fun .def_84 () Bool (and .def_47 .def_83))
(define-fun .def_85 () Bool (and |.loc{7}| .def_84))
(define-fun .def_86 () Bool (and .def_55 .def_85))
(define-fun .def_87 () Bool (and .def_61 .def_86))
(define-fun .def_267 () Bool (or .def_87 .def_266))
(define-fun .def_69 () Bool (not .def_68))
(define-fun .def_64 () Int (+ .def_10 .def_63))
(define-fun .def_65 () Int (+ .def_8 .def_64))
(define-fun .def_66 () Bool (= .def_65 0))
(define-fun .def_58 () (Array Int Int) (store .def_12 |.x{163}| 42))
(define-fun .def_59 () Bool (= |.x{153}| .def_58))
(define-fun .def_51 () Int (* (- 1) |.x{152}|))
(define-fun .def_52 () Int (+ .def_8 .def_51))
(define-fun .def_53 () Bool (= .def_52 (- 1)))
(define-fun .def_42 () Bool (= .def_10 |.y{5}|))
(define-fun .def_29 () Bool (<= .def_10 0))
(define-fun .def_38 () Bool (not .def_29))
(define-fun .def_33 () Bool (or .def_29 .def_32))
(define-fun .def_35 () Bool (and .def_33 .def_34))
(define-fun .def_37 () Bool (and .def_35 .def_36))
(define-fun .def_39 () Bool (and .def_37 .def_38))
(define-fun .def_41 () Bool (and .def_39 .def_40))
(define-fun .def_43 () Bool (and .def_41 .def_42))
(define-fun .def_44 () Bool (and .def_22 .def_43))
(define-fun .def_46 () Bool (and .def_44 .def_45))
(define-fun .def_48 () Bool (and .def_46 .def_47))
(define-fun .def_49 () Bool (and |.loc{7}| .def_48))
(define-fun .def_54 () Bool (and .def_49 .def_53))
(define-fun .def_56 () Bool (and .def_54 .def_55))
(define-fun .def_60 () Bool (and .def_56 .def_59))
(define-fun .def_62 () Bool (and .def_60 .def_61))
(define-fun .def_67 () Bool (and .def_62 .def_66))
(define-fun .def_70 () Bool (and .def_67 .def_69))
(define-fun .def_268 () Bool (! (or .def_70 .def_267) :trans true))
(define-fun .def_271 () Int (! |.x{182}| :next |.xpv{1}|))
(define-fun .def_286 () Bool (and .def_26 .def_269))
(define-fun .def_282 () Int (select .def_12 .def_271))
(define-fun .def_283 () Bool (= .def_14 .def_282))
(define-fun .def_284 () Bool (not .def_283))
(define-fun .def_275 () Int (* (- 1) .def_271))
(define-fun .def_276 () Int (+ .def_14 .def_275))
(define-fun .def_277 () Int (+ .def_8 .def_276))
(define-fun .def_278 () Bool (= .def_277 0))
(define-fun .def_279 () Bool (and .def_242 .def_278))
(define-fun .def_272 () Bool (<= .def_271 0))
(define-fun .def_273 () Bool (not .def_272))
(define-fun .def_274 () Bool (or .def_125 .def_273))
(define-fun .def_280 () Bool (and .def_274 .def_279))
(define-fun .def_281 () Bool (and .def_128 .def_280))
(define-fun .def_285 () Bool (and .def_281 .def_284))
(define-fun .def_287 () Bool (and .def_285 .def_286))
(define-fun .def_289 () Bool (! (not .def_287) :invar-property 0))
(assert true)
